c read Graph
c width = 91
c time = 305 ms
c width = 11
c time = 421 ms
c width = 10
c time = 496 ms
c width = 9
c time = 533 ms
c width = 8
c time = 2078 ms
c width = 8
c time = 3900 ms
s td 95 9 104
b 1 1 2 14
b 2 2 3 14 15
b 3 11 12 25 26
b 4 3 14 15 27
b 5 11 25 26 39
b 6 66 79 80 93
b 7 78 90 91 103
b 8 66 80 93 94
b 9 78 90 102 103
b 10 3 4 5 17
b 11 3 5 16 17 28 40
b 12 5 16 17 28 30 40 42
b 13 5 17 28 30 40 42 54
b 14 28 40 41 42 54
b 15 5 17 30 40 42 54 66
b 16 40 53 54 66
b 17 5 7 17 19 30 31 42 54 66
b 18 7 19 30 31 42 43 54 66
b 19 5 17 18 19 31
b 20 5 6 7 19
b 21 16 28 29 30 42
b 22 3 16 27 28 40
b 23 3 15 16 27 28
b 24 7 9 21 35 49 50 64 78
b 25 7 21 35 49 50 63 64 78
b 26 7 21 35 49 63 64 77 78
b 27 7 21 35 49 63 77 78 89 101
b 28 7 21 35 49 63 75 77 89 101
b 29 7 21 35 49 61 63 75 89 101
b 30 7 21 35 47 49 61 75 89 101
b 31 7 21 33 35 47 61 75 89 101
b 32 7 19 21 33 47 61 75 89 101
b 33 7 19 33 47 61 75 87 89 101
b 34 7 19 33 47 61 73 75 87 101
b 35 7 19 33 47 59 61 73 87 101
b 36 7 19 33 45 47 59 73 87 101
b 37 7 19 32 33 45 59 73 87 101
b 38 7 19 31 32 45 59 73 87 101
b 39 7 19 31 45 59 73 87 99 101
b 40 7 19 31 45 59 73 85 87 99
b 41 7 19 31 45 59 72 73 85 99
b 42 7 19 31 45 58 59 72 85 99
b 43 7 19 31 44 45 58 72 85 99
b 44 7 19 31 44 58 71 72 85 99
b 45 7 19 31 44 57 58 71 85 99
b 46 7 19 31 43 44 57 71 85 99
b 47 7 19 31 43 57 71 85 98 99
b 48 7 19 31 43 57 71 84 85 98
b 49 7 19 31 43 57 70 71 84 98
b 50 7 19 31 43 56 57 70 84 98
b 51 7 19 31 43 56 70 84 97 98
b 52 7 19 31 43 56 70 83 84 97
b 53 7 19 31 43 56 69 70 83 97
b 54 7 19 31 43 55 56 69 83 97
b 55 7 19 31 43 55 69 83 96 97
b 56 7 19 31 43 55 69 82 83 96
b 57 7 19 31 43 55 68 69 82 96
b 58 7 19 31 43 55 68 82 95 96
b 59 7 19 31 43 55 68 81 82 95
b 60 7 19 31 43 55 67 68 81 95
b 61 7 19 31 43 55 67 81 94 95
b 62 7 19 31 43 55 67 80 81 94
b 63 7 19 31 43 55 66 67 80 94
b 64 7 19 31 43 54 55 66 67 94
b 65 7 19 31 42 43 54 55 66 94
b 66 87 99 100 101
b 67 9 21 35 36 49 50 64 78
b 68 9 21 23 35 36 50 64 78
b 69 9 21 22 23 35
b 70 9 23 36 50 52 64 78
b 71 9 23 36 38 50 52 64
b 72 38 50 51 52 64
b 73 9 23 24 36 38 50 52
b 74 9 11 23 24 38 52
b 75 9 10 11 23
b 76 11 24 38 39 52
b 77 11 24 25 38 39
b 78 24 36 37 38 50
b 79 52 64 65 78
b 80 75 87 88 89 101
b 81 77 78 89 101 102
b 82 77 78 89 90 102
b 83 63 75 76 77 89
b 84 49 61 62 63 75
b 85 61 73 74 75 87
b 86 73 85 86 87 99
b 87 35 47 48 49 61
b 88 47 59 60 61 73
b 89 33 45 46 47 59
b 90 21 33 34 35 47
b 91 7 19 20 21 33
b 92 7 8 9 21
b 93 91 103 104
b 94 79 92 93
b 95 12 13 26
1 2
2 4
3 95
3 5
4 23
5 77
6 94
6 8
7 93
7 9
8 63
9 82
10 11
11 22
11 12
12 21
12 13
13 15
13 14
15 17
15 16
17 19
17 20
17 18
18 65
22 23
24 92
24 67
24 25
25 26
26 27
27 81
27 28
28 83
28 29
29 84
29 30
30 87
30 31
31 90
31 32
32 91
32 33
33 80
33 34
34 85
34 35
35 88
35 36
36 89
36 37
37 38
38 39
39 66
39 40
40 86
40 41
41 42
42 43
43 44
44 45
45 46
46 47
47 48
48 49
49 50
50 51
51 52
52 53
53 54
54 55
55 56
56 57
57 58
58 59
59 60
60 61
61 62
62 63
63 64
64 65
67 68
68 69
68 70
70 71
70 79
71 73
71 72
73 78
73 74
74 75
74 76
76 77
81 82
